(set-info :source Astral)
(set-info :status unsat)

(declare-sort Loc 0)
(declare-heap (Loc Loc))

(declare-const x Loc)
(declare-const y Loc)

(assert (distinct x y))
(assert (not emp))

(check-sat)
